NAME srl_ilp
* Max problem is converted into Min one
ROWS
 N  OBJ
 L  constraint1_00
 L  constraint1_10
 L  constraint1_11
 L  constraint1_12
 L  constraint1_20
 L  constraint1_21
 L  constraint1_22
 L  constraint1_30
 L  constraint1_31
 L  constraint1_40
 L  constraint1_41
 L  constraint1_42
 L  constraint1_50
 L  constraint1_51
 L  constraint1_52
 L  constraint2_00
 L  constraint2_01
 L  constraint2_02
 L  constraint2_03
 L  constraint2_10
 L  constraint2_11
 L  constraint2_12
 L  constraint2_13
 L  constraint2_20
 L  constraint2_21
 L  constraint2_22
 L  constraint2_23
 L  constraint2_30
 L  constraint2_31
 L  constraint2_32
 L  constraint2_33
 L  constraint2_40
 L  constraint2_41
 L  constraint2_42
 L  constraint2_43
 L  constraint2_50
 L  constraint2_51
 L  constraint2_52
 L  constraint2_53
COLUMNS
    MARKER    'MARKER'                 'INTORG'
    Z_000     OBJ       -0.05
    Z_000     constraint1_00  1
    Z_000     constraint2_00  1
    Z_001     OBJ       -0.05
    Z_001     constraint1_00  1
    Z_001     constraint2_01  1
    Z_002     OBJ       -0.4
    Z_002     constraint1_00  1
    Z_002     constraint2_02  1
    Z_003     OBJ       -0.05
    Z_003     constraint1_00  1
    Z_003     constraint2_03  1
    Z_100     OBJ       -0.25
    Z_100     constraint1_10  1
    Z_100     constraint2_10  1
    Z_101     OBJ       -0.1
    Z_101     constraint1_10  1
    Z_101     constraint2_11  1
    Z_102     OBJ       -0.35
    Z_102     constraint1_10  1
    Z_102     constraint2_12  1
    Z_103     OBJ       -0.05
    Z_103     constraint1_10  1
    Z_103     constraint2_13  1
    Z_110     OBJ       -0.25
    Z_110     constraint1_11  1
    Z_110     constraint2_10  1
    Z_111     OBJ       -0.1
    Z_111     constraint1_11  1
    Z_111     constraint2_11  1
    Z_112     OBJ       -0.05
    Z_112     constraint1_11  1
    Z_112     constraint2_12  1
    Z_113     OBJ       -0.35
    Z_113     constraint1_11  1
    Z_113     constraint2_13  1
    Z_120     OBJ       -0.4
    Z_120     constraint1_12  1
    Z_120     constraint2_10  1
    Z_121     OBJ       -0.1
    Z_121     constraint1_12  1
    Z_121     constraint2_11  1
    Z_122     OBJ       -0.05
    Z_122     constraint1_12  1
    Z_122     constraint2_12  1
    Z_123     OBJ       -0.15
    Z_123     constraint1_12  1
    Z_123     constraint2_13  1
    Z_200     OBJ       -0.35
    Z_200     constraint1_20  1
    Z_200     constraint2_20  1
    Z_201     OBJ       -0.1
    Z_201     constraint1_20  1
    Z_201     constraint2_21  1
    Z_202     OBJ       -0.05
    Z_202     constraint1_20  1
    Z_202     constraint2_22  1
    Z_203     OBJ       -0.25
    Z_203     constraint1_20  1
    Z_203     constraint2_23  1
    Z_210     OBJ       -0.2
    Z_210     constraint1_21  1
    Z_210     constraint2_20  1
    Z_211     OBJ       -0.1
    Z_211     constraint1_21  1
    Z_211     constraint2_21  1
    Z_212     OBJ       -0.35
    Z_212     constraint1_21  1
    Z_212     constraint2_22  1
    Z_213     OBJ       -0.05
    Z_213     constraint1_21  1
    Z_213     constraint2_23  1
    Z_220     OBJ       -0.05
    Z_220     constraint1_22  1
    Z_220     constraint2_20  1
    Z_221     OBJ       -0.1
    Z_221     constraint1_22  1
    Z_221     constraint2_21  1
    Z_222     OBJ       -0.15
    Z_222     constraint1_22  1
    Z_222     constraint2_22  1
    Z_223     OBJ       -0.4
    Z_223     constraint1_22  1
    Z_223     constraint2_23  1
    Z_300     OBJ       -0.05
    Z_300     constraint1_30  1
    Z_300     constraint2_30  1
    Z_301     OBJ       -0.15
    Z_301     constraint1_30  1
    Z_301     constraint2_31  1
    Z_302     OBJ       -0.35
    Z_302     constraint1_30  1
    Z_302     constraint2_32  1
    Z_303     OBJ       -0.2
    Z_303     constraint1_30  1
    Z_303     constraint2_33  1
    Z_310     OBJ       -0.15
    Z_310     constraint1_31  1
    Z_310     constraint2_30  1
    Z_311     OBJ       -0.1
    Z_311     constraint1_31  1
    Z_311     constraint2_31  1
    Z_312     OBJ       -0.05
    Z_312     constraint1_31  1
    Z_312     constraint2_32  1
    Z_313     OBJ       -0.35
    Z_313     constraint1_31  1
    Z_313     constraint2_33  1
    Z_400     OBJ       -0.05
    Z_400     constraint1_40  1
    Z_400     constraint2_40  1
    Z_401     OBJ       -0.1
    Z_401     constraint1_40  1
    Z_401     constraint2_41  1
    Z_402     OBJ       -0.35
    Z_402     constraint1_40  1
    Z_402     constraint2_42  1
    Z_403     OBJ       -0.05
    Z_403     constraint1_40  1
    Z_403     constraint2_43  1
    Z_410     OBJ       -0.25
    Z_410     constraint1_41  1
    Z_410     constraint2_40  1
    Z_411     OBJ       -0.15
    Z_411     constraint1_41  1
    Z_411     constraint2_41  1
    Z_412     OBJ       -0.05
    Z_412     constraint1_41  1
    Z_412     constraint2_42  1
    Z_413     OBJ       -0.4
    Z_413     constraint1_41  1
    Z_413     constraint2_43  1
    Z_420     OBJ       -0.35
    Z_420     constraint1_42  1
    Z_420     constraint2_40  1
    Z_421     OBJ       -0.1
    Z_421     constraint1_42  1
    Z_421     constraint2_41  1
    Z_422     OBJ       -0.05
    Z_422     constraint1_42  1
    Z_422     constraint2_42  1
    Z_423     OBJ       -0.1
    Z_423     constraint1_42  1
    Z_423     constraint2_43  1
    Z_500     constraint1_50  1
    Z_500     constraint2_50  1
    Z_501     OBJ       -0.1
    Z_501     constraint1_50  1
    Z_501     constraint2_51  1
    Z_502     OBJ       -0.4
    Z_502     constraint1_50  1
    Z_502     constraint2_52  1
    Z_503     OBJ       -0.15
    Z_503     constraint1_50  1
    Z_503     constraint2_53  1
    Z_510     OBJ       -0.25
    Z_510     constraint1_51  1
    Z_510     constraint2_50  1
    Z_511     OBJ       -0.1
    Z_511     constraint1_51  1
    Z_511     constraint2_51  1
    Z_512     OBJ       -0.05
    Z_512     constraint1_51  1
    Z_512     constraint2_52  1
    Z_513     OBJ       -0.35
    Z_513     constraint1_51  1
    Z_513     constraint2_53  1
    Z_520     OBJ       -0.4
    Z_520     constraint1_52  1
    Z_520     constraint2_50  1
    Z_521     OBJ       -0.1
    Z_521     constraint1_52  1
    Z_521     constraint2_51  1
    Z_522     OBJ       -0.05
    Z_522     constraint1_52  1
    Z_522     constraint2_52  1
    Z_523     OBJ       -0.25
    Z_523     constraint1_52  1
    Z_523     constraint2_53  1
    MARKER    'MARKER'                 'INTEND'
RHS
    RHS1      constraint1_00  1
    RHS1      constraint1_10  1
    RHS1      constraint1_11  1
    RHS1      constraint1_12  1
    RHS1      constraint1_20  1
    RHS1      constraint1_21  1
    RHS1      constraint1_22  1
    RHS1      constraint1_30  1
    RHS1      constraint1_31  1
    RHS1      constraint1_40  1
    RHS1      constraint1_41  1
    RHS1      constraint1_42  1
    RHS1      constraint1_50  1
    RHS1      constraint1_51  1
    RHS1      constraint1_52  1
    RHS1      constraint2_00  1
    RHS1      constraint2_01  1
    RHS1      constraint2_02  1
    RHS1      constraint2_03  1
    RHS1      constraint2_10  1
    RHS1      constraint2_11  1
    RHS1      constraint2_12  1
    RHS1      constraint2_13  1
    RHS1      constraint2_20  1
    RHS1      constraint2_21  1
    RHS1      constraint2_22  1
    RHS1      constraint2_23  1
    RHS1      constraint2_30  1
    RHS1      constraint2_31  1
    RHS1      constraint2_32  1
    RHS1      constraint2_33  1
    RHS1      constraint2_40  1
    RHS1      constraint2_41  1
    RHS1      constraint2_42  1
    RHS1      constraint2_43  1
    RHS1      constraint2_50  1
    RHS1      constraint2_51  1
    RHS1      constraint2_52  1
    RHS1      constraint2_53  1
BOUNDS
 UP BND1      Z_000     1
 UP BND1      Z_001     1
 UP BND1      Z_002     1
 UP BND1      Z_003     1
 UP BND1      Z_100     1
 UP BND1      Z_101     1
 UP BND1      Z_102     1
 UP BND1      Z_103     1
 UP BND1      Z_110     1
 UP BND1      Z_111     1
 UP BND1      Z_112     1
 UP BND1      Z_113     1
 UP BND1      Z_120     1
 UP BND1      Z_121     1
 UP BND1      Z_122     1
 UP BND1      Z_123     1
 UP BND1      Z_200     1
 UP BND1      Z_201     1
 UP BND1      Z_202     1
 UP BND1      Z_203     1
 UP BND1      Z_210     1
 UP BND1      Z_211     1
 UP BND1      Z_212     1
 UP BND1      Z_213     1
 UP BND1      Z_220     1
 UP BND1      Z_221     1
 UP BND1      Z_222     1
 UP BND1      Z_223     1
 UP BND1      Z_300     1
 UP BND1      Z_301     1
 UP BND1      Z_302     1
 UP BND1      Z_303     1
 UP BND1      Z_310     1
 UP BND1      Z_311     1
 UP BND1      Z_312     1
 UP BND1      Z_313     1
 UP BND1      Z_400     1
 UP BND1      Z_401     1
 UP BND1      Z_402     1
 UP BND1      Z_403     1
 UP BND1      Z_410     1
 UP BND1      Z_411     1
 UP BND1      Z_412     1
 UP BND1      Z_413     1
 UP BND1      Z_420     1
 UP BND1      Z_421     1
 UP BND1      Z_422     1
 UP BND1      Z_423     1
 UP BND1      Z_500     1
 UP BND1      Z_501     1
 UP BND1      Z_502     1
 UP BND1      Z_503     1
 UP BND1      Z_510     1
 UP BND1      Z_511     1
 UP BND1      Z_512     1
 UP BND1      Z_513     1
 UP BND1      Z_520     1
 UP BND1      Z_521     1
 UP BND1      Z_522     1
 UP BND1      Z_523     1
QUADOBJ
    Z_000     Z_100     -1.3316446542739868e-01
    Z_000     Z_110     -4.3786695389265943e-03
    Z_000     Z_120     -2.9381266926081437e-02
    Z_000     Z_200     -6.9609890316704309e-02
    Z_000     Z_210     -4.5529353618621826e-01
    Z_000     Z_220     -3.7245003545958180e-02
    Z_000     Z_300     -3.7795004248619080e-01
    Z_000     Z_310     -3.6369511485099792e-01
    Z_000     Z_400     -3.7795004248619080e-01
    Z_000     Z_410     -3.6369511485099792e-01
    Z_000     Z_420     7.1280324584090018e-02
    Z_000     Z_500     -1.3316446542739868e-01
    Z_000     Z_510     -8.7249495089054108e-02
    Z_000     Z_520     7.4172529765146697e-02
    Z_001     Z_101     -1.3316446542739868e-01
    Z_001     Z_111     -4.3786695389265943e-03
    Z_001     Z_121     -2.9381266926081437e-02
    Z_001     Z_201     -6.9609890316704309e-02
    Z_001     Z_211     -4.5529353618621826e-01
    Z_001     Z_221     -3.7245003545958180e-02
    Z_001     Z_301     -3.7795004248619080e-01
    Z_001     Z_311     -3.6369511485099792e-01
    Z_001     Z_401     -3.7795004248619080e-01
    Z_001     Z_411     -3.6369511485099792e-01
    Z_001     Z_421     7.1280324584090018e-02
    Z_001     Z_501     -1.3316446542739868e-01
    Z_001     Z_511     -8.7249495089054108e-02
    Z_001     Z_521     7.4172529765146697e-02
    Z_002     Z_102     -1.3316446542739868e-01
    Z_002     Z_112     -4.3786695389265943e-03
    Z_002     Z_122     -2.9381266926081437e-02
    Z_002     Z_202     -6.9609890316704309e-02
    Z_002     Z_212     -4.5529353618621826e-01
    Z_002     Z_222     -3.7245003545958180e-02
    Z_002     Z_302     -3.7795004248619080e-01
    Z_002     Z_312     -3.6369511485099792e-01
    Z_002     Z_402     -3.7795004248619080e-01
    Z_002     Z_412     -3.6369511485099792e-01
    Z_002     Z_422     7.1280324584090018e-02
    Z_002     Z_502     -1.3316446542739868e-01
    Z_002     Z_512     -8.7249495089054108e-02
    Z_002     Z_522     7.4172529765146697e-02
    Z_003     Z_103     -1.3316446542739868e-01
    Z_003     Z_113     -4.3786695389265943e-03
    Z_003     Z_123     -2.9381266926081437e-02
    Z_003     Z_203     -6.9609890316704309e-02
    Z_003     Z_213     -4.5529353618621826e-01
    Z_003     Z_223     -3.7245003545958180e-02
    Z_003     Z_303     -3.7795004248619080e-01
    Z_003     Z_313     -3.6369511485099792e-01
    Z_003     Z_403     -3.7795004248619080e-01
    Z_003     Z_413     -3.6369511485099792e-01
    Z_003     Z_423     7.1280324584090018e-02
    Z_003     Z_503     -1.3316446542739868e-01
    Z_003     Z_513     -8.7249495089054108e-02
    Z_003     Z_523     7.4172529765146697e-02
    Z_100     Z_200     -1.0356404672859804e-01
    Z_100     Z_210     -2.1547476947307587e-01
    Z_100     Z_220     1.5981453029778360e-02
    Z_100     Z_300     -3.2035875320434570e-01
    Z_100     Z_310     -1.0026995837688446e-01
    Z_100     Z_400     -3.2035875320434570e-01
    Z_100     Z_410     -1.0026995837688446e-01
    Z_100     Z_420     3.6067728519005429e-02
    Z_100     Z_500     -1.0000001192092896e+00
    Z_100     Z_510     -7.8863024711608887e-02
    Z_100     Z_520     -1.1637322862847348e-01
    Z_101     Z_201     -1.0356404672859804e-01
    Z_101     Z_211     -2.1547476947307587e-01
    Z_101     Z_221     1.5981453029778360e-02
    Z_101     Z_301     -3.2035875320434570e-01
    Z_101     Z_311     -1.0026995837688446e-01
    Z_101     Z_401     -3.2035875320434570e-01
    Z_101     Z_411     -1.0026995837688446e-01
    Z_101     Z_421     3.6067728519005429e-02
    Z_101     Z_501     -1.0000001192092896e+00
    Z_101     Z_511     -7.8863024711608887e-02
    Z_101     Z_521     -1.1637322862847348e-01
    Z_102     Z_202     -1.0356404672859804e-01
    Z_102     Z_212     -2.1547476947307587e-01
    Z_102     Z_222     1.5981453029778360e-02
    Z_102     Z_302     -3.2035875320434570e-01
    Z_102     Z_312     -1.0026995837688446e-01
    Z_102     Z_402     -3.2035875320434570e-01
    Z_102     Z_412     -1.0026995837688446e-01
    Z_102     Z_422     3.6067728519005429e-02
    Z_102     Z_502     -1.0000001192092896e+00
    Z_102     Z_512     -7.8863024711608887e-02
    Z_102     Z_522     -1.1637322862847348e-01
    Z_103     Z_203     -1.0356404672859804e-01
    Z_103     Z_213     -2.1547476947307587e-01
    Z_103     Z_223     1.5981453029778360e-02
    Z_103     Z_303     -3.2035875320434570e-01
    Z_103     Z_313     -1.0026995837688446e-01
    Z_103     Z_403     -3.2035875320434570e-01
    Z_103     Z_413     -1.0026995837688446e-01
    Z_103     Z_423     3.6067728519005429e-02
    Z_103     Z_503     -1.0000001192092896e+00
    Z_103     Z_513     -7.8863024711608887e-02
    Z_103     Z_523     -1.1637322862847348e-01
    Z_110     Z_200     -1.8455780088107207e-02
    Z_110     Z_210     2.3184305824136532e-02
    Z_110     Z_220     2.3029036494389272e-02
    Z_110     Z_300     -1.6536203776304888e-02
    Z_110     Z_310     1.2373156005995484e-01
    Z_110     Z_400     -1.6536203776304888e-02
    Z_110     Z_410     1.2373156005995484e-01
    Z_110     Z_420     4.9874599339981347e-02
    Z_110     Z_500     -1.2339770197505537e-01
    Z_110     Z_510     1.8823645797510863e-02
    Z_110     Z_520     -6.9286370988928161e-02
    Z_111     Z_201     -1.8455780088107207e-02
    Z_111     Z_211     2.3184305824136532e-02
    Z_111     Z_221     2.3029036494389272e-02
    Z_111     Z_301     -1.6536203776304888e-02
    Z_111     Z_311     1.2373156005995484e-01
    Z_111     Z_401     -1.6536203776304888e-02
    Z_111     Z_411     1.2373156005995484e-01
    Z_111     Z_421     4.9874599339981347e-02
    Z_111     Z_501     -1.2339770197505537e-01
    Z_111     Z_511     1.8823645797510863e-02
    Z_111     Z_521     -6.9286370988928161e-02
    Z_112     Z_202     -1.8455780088107207e-02
    Z_112     Z_212     2.3184305824136532e-02
    Z_112     Z_222     2.3029036494389272e-02
    Z_112     Z_302     -1.6536203776304888e-02
    Z_112     Z_312     1.2373156005995484e-01
    Z_112     Z_402     -1.6536203776304888e-02
    Z_112     Z_412     1.2373156005995484e-01
    Z_112     Z_422     4.9874599339981347e-02
    Z_112     Z_502     -1.2339770197505537e-01
    Z_112     Z_512     1.8823645797510863e-02
    Z_112     Z_522     -6.9286370988928161e-02
    Z_113     Z_203     -1.8455780088107207e-02
    Z_113     Z_213     2.3184305824136532e-02
    Z_113     Z_223     2.3029036494389272e-02
    Z_113     Z_303     -1.6536203776304888e-02
    Z_113     Z_313     1.2373156005995484e-01
    Z_113     Z_403     -1.6536203776304888e-02
    Z_113     Z_413     1.2373156005995484e-01
    Z_113     Z_423     4.9874599339981347e-02
    Z_113     Z_503     -1.2339770197505537e-01
    Z_113     Z_513     1.8823645797510863e-02
    Z_113     Z_523     -6.9286370988928161e-02
    Z_120     Z_200     5.4290950485970005e-02
    Z_120     Z_210     -5.1534386316542113e-02
    Z_120     Z_220     3.3553225282109488e-02
    Z_120     Z_300     9.3803639071880877e-03
    Z_120     Z_310     -5.3853874874946014e-02
    Z_120     Z_400     9.3803639071880877e-03
    Z_120     Z_410     -5.3853874874946014e-02
    Z_120     Z_420     -5.1522502231161275e-02
    Z_120     Z_500     4.5485181105274483e-02
    Z_120     Z_510     -2.5391343975960890e-03
    Z_120     Z_520     -4.6711350372279845e-02
    Z_121     Z_201     5.4290950485970005e-02
    Z_121     Z_211     -5.1534386316542113e-02
    Z_121     Z_221     3.3553225282109488e-02
    Z_121     Z_301     9.3803639071880877e-03
    Z_121     Z_311     -5.3853874874946014e-02
    Z_121     Z_401     9.3803639071880877e-03
    Z_121     Z_411     -5.3853874874946014e-02
    Z_121     Z_421     -5.1522502231161275e-02
    Z_121     Z_501     4.5485181105274483e-02
    Z_121     Z_511     -2.5391343975960890e-03
    Z_121     Z_521     -4.6711350372279845e-02
    Z_122     Z_202     5.4290950485970005e-02
    Z_122     Z_212     -5.1534386316542113e-02
    Z_122     Z_222     3.3553225282109488e-02
    Z_122     Z_302     9.3803639071880877e-03
    Z_122     Z_312     -5.3853874874946014e-02
    Z_122     Z_402     9.3803639071880877e-03
    Z_122     Z_412     -5.3853874874946014e-02
    Z_122     Z_422     -5.1522502231161275e-02
    Z_122     Z_502     4.5485181105274483e-02
    Z_122     Z_512     -2.5391343975960890e-03
    Z_122     Z_522     -4.6711350372279845e-02
    Z_123     Z_203     5.4290950485970005e-02
    Z_123     Z_213     -5.1534386316542113e-02
    Z_123     Z_223     3.3553225282109488e-02
    Z_123     Z_303     9.3803639071880877e-03
    Z_123     Z_313     -5.3853874874946014e-02
    Z_123     Z_403     9.3803639071880877e-03
    Z_123     Z_413     -5.3853874874946014e-02
    Z_123     Z_423     -5.1522502231161275e-02
    Z_123     Z_503     4.5485181105274483e-02
    Z_123     Z_513     -2.5391343975960890e-03
    Z_123     Z_523     -4.6711350372279845e-02
    Z_200     Z_300     -3.7315526923709000e-02
    Z_200     Z_310     -4.3559733223293609e-02
    Z_200     Z_400     -3.7315526923709000e-02
    Z_200     Z_410     -4.3559733223293609e-02
    Z_200     Z_420     1.0187308377686163e-01
    Z_200     Z_500     -1.0356404672859804e-01
    Z_200     Z_510     7.6779133143610123e-02
    Z_200     Z_520     5.3339365352989380e-02
    Z_201     Z_301     -3.7315526923709000e-02
    Z_201     Z_311     -4.3559733223293609e-02
    Z_201     Z_401     -3.7315526923709000e-02
    Z_201     Z_411     -4.3559733223293609e-02
    Z_201     Z_421     1.0187308377686163e-01
    Z_201     Z_501     -1.0356404672859804e-01
    Z_201     Z_511     7.6779133143610123e-02
    Z_201     Z_521     5.3339365352989380e-02
    Z_202     Z_302     -3.7315526923709000e-02
    Z_202     Z_312     -4.3559733223293609e-02
    Z_202     Z_402     -3.7315526923709000e-02
    Z_202     Z_412     -4.3559733223293609e-02
    Z_202     Z_422     1.0187308377686163e-01
    Z_202     Z_502     -1.0356404672859804e-01
    Z_202     Z_512     7.6779133143610123e-02
    Z_202     Z_522     5.3339365352989380e-02
    Z_203     Z_303     -3.7315526923709000e-02
    Z_203     Z_313     -4.3559733223293609e-02
    Z_203     Z_403     -3.7315526923709000e-02
    Z_203     Z_413     -4.3559733223293609e-02
    Z_203     Z_423     1.0187308377686163e-01
    Z_203     Z_503     -1.0356404672859804e-01
    Z_203     Z_513     7.6779133143610123e-02
    Z_203     Z_523     5.3339365352989380e-02
    Z_210     Z_300     -4.8564815521240234e-01
    Z_210     Z_310     -1.2734140455722809e-01
    Z_210     Z_400     -4.8564815521240234e-01
    Z_210     Z_410     -1.2734140455722809e-01
    Z_210     Z_420     1.0673952487679265e-01
    Z_210     Z_500     -2.1547476947307587e-01
    Z_210     Z_510     -7.2353996336460114e-02
    Z_210     Z_520     -1.4007829327977710e-02
    Z_211     Z_301     -4.8564815521240234e-01
    Z_211     Z_311     -1.2734140455722809e-01
    Z_211     Z_401     -4.8564815521240234e-01
    Z_211     Z_411     -1.2734140455722809e-01
    Z_211     Z_421     1.0673952487679265e-01
    Z_211     Z_501     -2.1547476947307587e-01
    Z_211     Z_511     -7.2353996336460114e-02
    Z_211     Z_521     -1.4007829327977710e-02
    Z_212     Z_302     -4.8564815521240234e-01
    Z_212     Z_312     -1.2734140455722809e-01
    Z_212     Z_402     -4.8564815521240234e-01
    Z_212     Z_412     -1.2734140455722809e-01
    Z_212     Z_422     1.0673952487679265e-01
    Z_212     Z_502     -2.1547476947307587e-01
    Z_212     Z_512     -7.2353996336460114e-02
    Z_212     Z_522     -1.4007829327977710e-02
    Z_213     Z_303     -4.8564815521240234e-01
    Z_213     Z_313     -1.2734140455722809e-01
    Z_213     Z_403     -4.8564815521240234e-01
    Z_213     Z_413     -1.2734140455722809e-01
    Z_213     Z_423     1.0673952487679265e-01
    Z_213     Z_503     -2.1547476947307587e-01
    Z_213     Z_513     -7.2353996336460114e-02
    Z_213     Z_523     -1.4007829327977710e-02
    Z_220     Z_300     -1.2015920516483083e-01
    Z_220     Z_310     -1.3651887843023119e-01
    Z_220     Z_400     -1.2015920516483083e-01
    Z_220     Z_410     -1.3651887843023119e-01
    Z_220     Z_420     -1.7270296515400265e-02
    Z_220     Z_500     1.5981453029778360e-02
    Z_220     Z_510     5.7342296315474488e-02
    Z_220     Z_520     8.3483621832292146e-02
    Z_221     Z_301     -1.2015920516483083e-01
    Z_221     Z_311     -1.3651887843023119e-01
    Z_221     Z_401     -1.2015920516483083e-01
    Z_221     Z_411     -1.3651887843023119e-01
    Z_221     Z_421     -1.7270296515400265e-02
    Z_221     Z_501     1.5981453029778360e-02
    Z_221     Z_511     5.7342296315474488e-02
    Z_221     Z_521     8.3483621832292146e-02
    Z_222     Z_302     -1.2015920516483083e-01
    Z_222     Z_312     -1.3651887843023119e-01
    Z_222     Z_402     -1.2015920516483083e-01
    Z_222     Z_412     -1.3651887843023119e-01
    Z_222     Z_422     -1.7270296515400265e-02
    Z_222     Z_502     1.5981453029778360e-02
    Z_222     Z_512     5.7342296315474488e-02
    Z_222     Z_522     8.3483621832292146e-02
    Z_223     Z_303     -1.2015920516483083e-01
    Z_223     Z_313     -1.3651887843023119e-01
    Z_223     Z_403     -1.2015920516483083e-01
    Z_223     Z_413     -1.3651887843023119e-01
    Z_223     Z_423     -1.7270296515400265e-02
    Z_223     Z_503     1.5981453029778360e-02
    Z_223     Z_513     5.7342296315474488e-02
    Z_223     Z_523     8.3483621832292146e-02
    Z_300     Z_400     -1.0000001192092896e+00
    Z_300     Z_410     -2.1895833313465118e-02
    Z_300     Z_420     -3.0526180960716741e-03
    Z_300     Z_500     -3.2035875320434570e-01
    Z_300     Z_510     -1.6702665388584137e-01
    Z_300     Z_520     7.9045775522913600e-02
    Z_301     Z_401     -1.0000001192092896e+00
    Z_301     Z_411     -2.1895833313465118e-02
    Z_301     Z_421     -3.0526180960716741e-03
    Z_301     Z_501     -3.2035875320434570e-01
    Z_301     Z_511     -1.6702665388584137e-01
    Z_301     Z_521     7.9045775522913600e-02
    Z_302     Z_402     -1.0000001192092896e+00
    Z_302     Z_412     -2.1895833313465118e-02
    Z_302     Z_422     -3.0526180960716741e-03
    Z_302     Z_502     -3.2035875320434570e-01
    Z_302     Z_512     -1.6702665388584137e-01
    Z_302     Z_522     7.9045775522913600e-02
    Z_303     Z_403     -1.0000001192092896e+00
    Z_303     Z_413     -2.1895833313465118e-02
    Z_303     Z_423     -3.0526180960716741e-03
    Z_303     Z_503     -3.2035875320434570e-01
    Z_303     Z_513     -1.6702665388584137e-01
    Z_303     Z_523     7.9045775522913600e-02
    Z_310     Z_400     -2.1895833313465118e-02
    Z_310     Z_410     -1
    Z_310     Z_420     -6.8605131445661910e-02
    Z_310     Z_500     -1.0026995837688446e-01
    Z_310     Z_510     -9.4372399151325226e-02
    Z_310     Z_520     -1.6021560182436972e-02
    Z_311     Z_401     -2.1895833313465118e-02
    Z_311     Z_411     -1
    Z_311     Z_421     -6.8605131445661910e-02
    Z_311     Z_501     -1.0026995837688446e-01
    Z_311     Z_511     -9.4372399151325226e-02
    Z_311     Z_521     -1.6021560182436972e-02
    Z_312     Z_402     -2.1895833313465118e-02
    Z_312     Z_412     -1
    Z_312     Z_422     -6.8605131445661910e-02
    Z_312     Z_502     -1.0026995837688446e-01
    Z_312     Z_512     -9.4372399151325226e-02
    Z_312     Z_522     -1.6021560182436972e-02
    Z_313     Z_403     -2.1895833313465118e-02
    Z_313     Z_413     -1
    Z_313     Z_423     -6.8605131445661910e-02
    Z_313     Z_503     -1.0026995837688446e-01
    Z_313     Z_513     -9.4372399151325226e-02
    Z_313     Z_523     -1.6021560182436972e-02
    Z_400     Z_500     -3.2035875320434570e-01
    Z_400     Z_510     -1.6702665388584137e-01
    Z_400     Z_520     7.9045775522913600e-02
    Z_401     Z_501     -3.2035875320434570e-01
    Z_401     Z_511     -1.6702665388584137e-01
    Z_401     Z_521     7.9045775522913600e-02
    Z_402     Z_502     -3.2035875320434570e-01
    Z_402     Z_512     -1.6702665388584137e-01
    Z_402     Z_522     7.9045775522913600e-02
    Z_403     Z_503     -3.2035875320434570e-01
    Z_403     Z_513     -1.6702665388584137e-01
    Z_403     Z_523     7.9045775522913600e-02
    Z_410     Z_500     -1.0026995837688446e-01
    Z_410     Z_510     -9.4372399151325226e-02
    Z_410     Z_520     -1.6021560182436972e-02
    Z_411     Z_501     -1.0026995837688446e-01
    Z_411     Z_511     -9.4372399151325226e-02
    Z_411     Z_521     -1.6021560182436972e-02
    Z_412     Z_502     -1.0026995837688446e-01
    Z_412     Z_512     -9.4372399151325226e-02
    Z_412     Z_522     -1.6021560182436972e-02
    Z_413     Z_503     -1.0026995837688446e-01
    Z_413     Z_513     -9.4372399151325226e-02
    Z_413     Z_523     -1.6021560182436972e-02
    Z_420     Z_500     3.6067728519005429e-02
    Z_420     Z_510     1.1054630220854961e-01
    Z_420     Z_520     5.8936561838910479e-03
    Z_421     Z_501     3.6067728519005429e-02
    Z_421     Z_511     1.1054630220854961e-01
    Z_421     Z_521     5.8936561838910479e-03
    Z_422     Z_502     3.6067728519005429e-02
    Z_422     Z_512     1.1054630220854961e-01
    Z_422     Z_522     5.8936561838910479e-03
    Z_423     Z_503     3.6067728519005429e-02
    Z_423     Z_513     1.1054630220854961e-01
    Z_423     Z_523     5.8936561838910479e-03
ENDATA
